n = 50;
C = 6163;
w = [293,354,404,481,441,216,210,294,220,452,73,35,147,27,90,402,54,469,492,141,69,208,149,22,369,399,65,473,190,173,181,321,451,404,251,56,387,179,339,21,91,56,137,166,488,302,483,241,214,146];
p = [1475,1780,2030,2415,2215,1090,1060,1480,1110,2270,375,185,745,145,460,2020,280,2355,2470,715,355,1050,755,120,1855,2005,335,2375,960,875,915,1615,2265,2030,1265,290,1945,905,1705,115,465,290,695,840,2450,1520,2425,1215,1080,740];
